85.5 106.5 107.5 105.5 110.5 133.5 114.5 131.5 143.5 128.5 133.5 127.5 132.5 137.5 130.5 137.5 144.5 156.5 147.5 155.5 161.5 149.5 159.5 160.5 166.5 175.5 170.5 180.5 161.5 168.5 173.5 176.5 168.5 178.5 163.5 194.5 175.5 184.5 193.5 194.5 194.5 203.5 212.5 202.5 204.5 191.5 217.5 210.5 213.5 209.5 217.5 216.5 214.5 215.5 220.5 228.5 205.5 226.5 227.5 225.5 230.5 253.5 234.5 251.5 263.5 248.5 253.5 247.5 252.5 257.5 250.5 257.5 264.5 276.5 267.5 275.5 281.5 269.5 279.5 280.5 286.5 295.5 290.5 300.5 281.5 288.5 293.5 296.5 288.5 298.5 283.5 314.5 295.5 304.5 313.5 314.5 314.5 323.5 332.5 322.5 324.5 311.5 337.5 330.5 333.5 329.5 337.5 336.5 334.5 335.5 340.5 348.5